Route #1:
Route #2: 21
Route #3: 27
Route #4: 24
Route #5: 26 20 25
Route #6: 12 30 1 28 7 14
Route #7: 3 9 4 8 22 10 18 5
Route #8: 6 2 29
Route #9: 17
Route #10: 31 11 13 19 23
Route #11: 15
Route #12: 16

Cost: 2065.6097903018813
